; DUP1 DUP1 SLOAD PUSH cw_3 PUSH cw_2 SWAP2 => DUP1 PUSH cw_2 PUSH cw_3 DUP4 SLOAD
(set-option :produce-proofs true)
; 
(set-info :status unknown)
(declare-fun storage_t ((_ BitVec 256) (_ BitVec 256) (_ BitVec 256) (_ BitVec 256) Int (_ BitVec 256)) (_ BitVec 256))
(declare-fun w_2 () (_ BitVec 256))
(declare-fun w_3 () (_ BitVec 256))
(declare-fun storage_s ((_ BitVec 256) (_ BitVec 256) (_ BitVec 256) (_ BitVec 256) Int (_ BitVec 256)) (_ BitVec 256))
(declare-fun exc_halt_t (Int) Bool)
(declare-fun exc_halt_s (Int) Bool)
(declare-fun sc_t (Int) (_ BitVec 6))
(declare-fun stack_t ((_ BitVec 256) (_ BitVec 256) (_ BitVec 256) (_ BitVec 256) Int (_ BitVec 6)) (_ BitVec 256))
(declare-fun stack_s ((_ BitVec 256) (_ BitVec 256) (_ BitVec 256) (_ BitVec 256) Int (_ BitVec 6)) (_ BitVec 256))
(declare-fun sc_s (Int) (_ BitVec 6))
(declare-fun used_gas_t ((_ BitVec 256) (_ BitVec 256) (_ BitVec 256) (_ BitVec 256) Int) Int)
(declare-fun used_gas_s ((_ BitVec 256) (_ BitVec 256) (_ BitVec 256) (_ BitVec 256) Int) Int)
(assert
 (exists ((x_0 (_ BitVec 256)) (x_SLOAD_0 (_ BitVec 256)) )(let (($x7869 (forall ((w (_ BitVec 256)) )(let ((?x6516 (storage_t x_0 x_SLOAD_0 w_3 w_2 5 w)))
 (let ((?x5119 (storage_s x_0 x_SLOAD_0 w_3 w_2 6 w)))
 (= ?x5119 ?x6516))))
 ))
 (let (($x886 (exc_halt_t 5)))
 (let (($x772 (exc_halt_s 6)))
 (let (($x889 (= $x772 $x886)))
 (let (($x3085 (forall ((n (_ BitVec 6)) )(let ((?x919 (sc_t 5)))
 (let (($x7410 (bvsle ?x919 n)))
 (let ((?x6672 (stack_t x_0 x_SLOAD_0 w_3 w_2 5 n)))
 (let ((?x10821 (stack_s x_0 x_SLOAD_0 w_3 w_2 6 n)))
 (let (($x1730 (= ?x10821 ?x6672)))
 (or $x1730 $x7410)))))))
 ))
 (let ((?x919 (sc_t 5)))
 (let ((?x926 (sc_s 6)))
 (let (($x929 (= ?x926 ?x919)))
 (let ((?x1352 (used_gas_t x_0 x_SLOAD_0 w_3 w_2 0)))
 (let ((?x10804 (used_gas_s x_0 x_SLOAD_0 w_3 w_2 0)))
 (let (($x1757 (= ?x10804 ?x1352)))
 (let (($x8038 (forall ((w (_ BitVec 256)) )(let ((?x1842 (storage_t x_0 x_SLOAD_0 w_3 w_2 0 w)))
 (let ((?x10161 (storage_s x_0 x_SLOAD_0 w_3 w_2 0 w)))
 (= ?x10161 ?x1842))))
 ))
 (let (($x56 (exc_halt_t 0)))
 (let (($x57 (exc_halt_s 0)))
 (let (($x58 (= $x57 $x56)))
 (let (($x1282 (forall ((n (_ BitVec 6)) )(let ((?x63 (sc_t 0)))
 (let (($x8037 (bvsle ?x63 n)))
 (let ((?x9480 (stack_t x_0 x_SLOAD_0 w_3 w_2 0 n)))
 (let ((?x4331 (stack_s x_0 x_SLOAD_0 w_3 w_2 0 n)))
 (let (($x6358 (= ?x4331 ?x9480)))
 (or $x6358 $x8037)))))))
 ))
 (let ((?x63 (sc_t 0)))
 (let ((?x72 (sc_s 0)))
 (let (($x73 (= ?x72 ?x63)))
 (let (($x6664 (= $x886 (or (exc_halt_t 4) (not (bvsle (_ bv0 6) (bvadd (_ bv63 6) (sc_t 4))))))))
 (let (($x9229 (forall ((w (_ BitVec 256)) )(let ((?x10010 (storage_t x_0 x_SLOAD_0 w_3 w_2 4 w)))
 (let ((?x6516 (storage_t x_0 x_SLOAD_0 w_3 w_2 5 w)))
 (= ?x6516 ?x10010))))
 ))
 (let (($x9779 (forall ((n (_ BitVec 6)) )(let ((?x10786 (stack_t x_0 x_SLOAD_0 w_3 w_2 4 n)))
 (let ((?x6672 (stack_t x_0 x_SLOAD_0 w_3 w_2 5 n)))
 (or (= ?x6672 ?x10786) (bvsle (bvadd (_ bv63 6) (sc_t 4)) n)))))
 ))
 (let (($x8256 (= (used_gas_t x_0 x_SLOAD_0 w_3 w_2 5) (+ 200 (used_gas_t x_0 x_SLOAD_0 w_3 w_2 4)))))
 (let ((?x3757 (sc_t 4)))
 (let ((?x8247 (bvadd (_ bv63 6) ?x3757)))
 (let ((?x8272 (stack_t x_0 x_SLOAD_0 w_3 w_2 4 ?x8247)))
 (let (($x1845 (= (stack_t x_0 x_SLOAD_0 w_3 w_2 5 (bvadd (_ bv63 6) ?x919)) (storage_t x_0 x_SLOAD_0 w_3 w_2 4 ?x8272))))
 (let (($x10336 (exc_halt_t 3)))
 (let (($x5147 (not (= ((_ extract 6 6) (bvadd (_ bv1 7) (concat (_ bv0 1) (sc_t 3)))) (_ bv0 1)))))
 (let (($x3187 (not (bvsle (_ bv0 6) (bvadd (_ bv60 6) (sc_t 3))))))
 (let (($x3723 (exc_halt_t 4)))
 (let (($x2698 (forall ((w (_ BitVec 256)) )(let ((?x4486 (storage_t x_0 x_SLOAD_0 w_3 w_2 3 w)))
 (let ((?x10010 (storage_t x_0 x_SLOAD_0 w_3 w_2 4 w)))
 (= ?x10010 ?x4486))))
 ))
 (let (($x6656 (forall ((n (_ BitVec 6)) )(let ((?x2012 (sc_t 3)))
 (let ((?x9462 (bvadd (_ bv60 6) ?x2012)))
 (let (($x7705 (bvsle ?x9462 n)))
 (let ((?x6660 (stack_t x_0 x_SLOAD_0 w_3 w_2 3 n)))
 (let ((?x10786 (stack_t x_0 x_SLOAD_0 w_3 w_2 4 n)))
 (or (= ?x10786 ?x6660) $x7705)))))))
 ))
 (let (($x2578 (= ?x3757 (bvadd (_ bv1 6) (sc_t 3)))))
 (let ((?x6430 (used_gas_t x_0 x_SLOAD_0 w_3 w_2 4)))
 (let (($x8452 (= (stack_t x_0 x_SLOAD_0 w_3 w_2 4 (bvadd (_ bv63 6) (sc_t 3))) (stack_t x_0 x_SLOAD_0 w_3 w_2 3 (bvadd (_ bv63 6) (sc_t 3))))))
 (let (($x9335 (= (stack_t x_0 x_SLOAD_0 w_3 w_2 4 (bvadd (_ bv62 6) (sc_t 3))) (stack_t x_0 x_SLOAD_0 w_3 w_2 3 (bvadd (_ bv62 6) (sc_t 3))))))
 (let (($x7628 (= (stack_t x_0 x_SLOAD_0 w_3 w_2 4 (bvadd (_ bv61 6) (sc_t 3))) (stack_t x_0 x_SLOAD_0 w_3 w_2 3 (bvadd (_ bv61 6) (sc_t 3))))))
 (let ((?x2012 (sc_t 3)))
 (let ((?x9462 (bvadd (_ bv60 6) ?x2012)))
 (let ((?x4663 (stack_t x_0 x_SLOAD_0 w_3 w_2 3 ?x9462)))
 (let (($x903 (exc_halt_t 2)))
 (let (($x7849 (or $x903 (not (= ((_ extract 6 6) (bvadd (_ bv1 7) (concat (_ bv0 1) (sc_t 2)))) (_ bv0 1))))))
 (let (($x2980 (= $x10336 $x7849)))
 (let (($x3921 (forall ((w (_ BitVec 256)) )(let ((?x6213 (storage_t x_0 x_SLOAD_0 w_3 w_2 2 w)))
 (let ((?x4486 (storage_t x_0 x_SLOAD_0 w_3 w_2 3 w)))
 (= ?x4486 ?x6213))))
 ))
 (let (($x2461 (forall ((n (_ BitVec 6)) )(let ((?x412 (stack_t x_0 x_SLOAD_0 w_3 w_2 2 n)))
 (let ((?x6660 (stack_t x_0 x_SLOAD_0 w_3 w_2 3 n)))
 (let ((?x4056 (sc_t 2)))
 (let (($x4469 (bvsle ?x4056 n)))
 (or $x4469 (= ?x6660 ?x412)))))))
 ))
 (let (($x1410 (= ?x2012 (bvadd (_ bv1 6) (sc_t 2)))))
 (let ((?x3398 (used_gas_t x_0 x_SLOAD_0 w_3 w_2 3)))
 (let (($x7962 (not (= ((_ extract 6 6) (bvadd (_ bv1 7) (concat (_ bv0 1) (sc_t 1)))) (_ bv0 1)))))
 (let (($x1920 (exc_halt_t 1)))
 (let (($x2178 (= $x903 (or $x1920 $x7962))))
 (let (($x9269 (forall ((w (_ BitVec 256)) )(let ((?x6233 (storage_t x_0 x_SLOAD_0 w_3 w_2 1 w)))
 (let ((?x6213 (storage_t x_0 x_SLOAD_0 w_3 w_2 2 w)))
 (= ?x6213 ?x6233))))
 ))
 (let (($x9549 (forall ((n (_ BitVec 6)) )(let ((?x4023 (sc_t 1)))
 (let (($x9004 (bvsle ?x4023 n)))
 (let ((?x7136 (stack_t x_0 x_SLOAD_0 w_3 w_2 1 n)))
 (let ((?x412 (stack_t x_0 x_SLOAD_0 w_3 w_2 2 n)))
 (or (= ?x412 ?x7136) $x9004))))))
 ))
 (let ((?x4056 (sc_t 2)))
 (let (($x6865 (= ?x4056 (bvadd (_ bv1 6) (sc_t 1)))))
 (let ((?x468 (used_gas_t x_0 x_SLOAD_0 w_3 w_2 2)))
 (let (($x4317 (not (bvsle (_ bv0 6) (bvadd (_ bv63 6) ?x63)))))
 (let (($x1244 (not (= ((_ extract 6 6) (bvadd (_ bv1 7) (concat (_ bv0 1) ?x63))) (_ bv0 1)))))
 (let (($x3532 (forall ((w (_ BitVec 256)) )(let ((?x1842 (storage_t x_0 x_SLOAD_0 w_3 w_2 0 w)))
 (let ((?x6233 (storage_t x_0 x_SLOAD_0 w_3 w_2 1 w)))
 (= ?x6233 ?x1842))))
 ))
 (let (($x2545 (forall ((n (_ BitVec 6)) )(let ((?x9480 (stack_t x_0 x_SLOAD_0 w_3 w_2 0 n)))
 (let ((?x7136 (stack_t x_0 x_SLOAD_0 w_3 w_2 1 n)))
 (let ((?x63 (sc_t 0)))
 (let ((?x4759 (bvadd (_ bv63 6) ?x63)))
 (let (($x19 (bvsle ?x4759 n)))
 (or $x19 (= ?x7136 ?x9480))))))))
 ))
 (let ((?x4023 (sc_t 1)))
 (let (($x2532 (= ?x4023 (bvadd (_ bv1 6) ?x63))))
 (let ((?x4759 (bvadd (_ bv63 6) ?x63)))
 (let ((?x9027 (stack_t x_0 x_SLOAD_0 w_3 w_2 0 ?x4759)))
 (let (($x5424 (= $x772 (or (exc_halt_s 5) (not (bvsle (_ bv0 6) (bvadd (_ bv61 6) (sc_s 5))))))))
 (let (($x3998 (forall ((w (_ BitVec 256)) )(let ((?x7322 (storage_s x_0 x_SLOAD_0 w_3 w_2 5 w)))
 (let ((?x5119 (storage_s x_0 x_SLOAD_0 w_3 w_2 6 w)))
 (= ?x5119 ?x7322))))
 ))
 (let (($x8080 (forall ((n (_ BitVec 6)) )(let ((?x2275 (stack_s x_0 x_SLOAD_0 w_3 w_2 5 n)))
 (let ((?x10821 (stack_s x_0 x_SLOAD_0 w_3 w_2 6 n)))
 (let ((?x805 (sc_s 5)))
 (let ((?x6911 (bvadd (_ bv61 6) ?x805)))
 (let (($x7723 (bvsle ?x6911 n)))
 (or $x7723 (= ?x10821 ?x2275))))))))
 ))
 (let ((?x805 (sc_s 5)))
 (let (($x7470 (= ?x926 ?x805)))
 (let (($x2388 (= (used_gas_s x_0 x_SLOAD_0 w_3 w_2 6) (+ 3 (used_gas_s x_0 x_SLOAD_0 w_3 w_2 5)))))
 (let (($x8610 (= (stack_s x_0 x_SLOAD_0 w_3 w_2 6 (bvadd (_ bv62 6) ?x926)) (stack_s x_0 x_SLOAD_0 w_3 w_2 5 (bvadd (_ bv62 6) ?x805)))))
 (let (($x8911 (= (stack_s x_0 x_SLOAD_0 w_3 w_2 6 (bvadd (_ bv61 6) ?x926)) (stack_s x_0 x_SLOAD_0 w_3 w_2 5 (bvadd (_ bv63 6) ?x805)))))
 (let (($x3963 (= (stack_s x_0 x_SLOAD_0 w_3 w_2 6 (bvadd (_ bv63 6) ?x926)) (stack_s x_0 x_SLOAD_0 w_3 w_2 5 (bvadd (_ bv61 6) ?x805)))))
 (let (($x64 (exc_halt_s 4)))
 (let (($x3406 (or $x64 (not (= ((_ extract 6 6) (bvadd (_ bv1 7) (concat (_ bv0 1) (sc_s 4)))) (_ bv0 1))))))
 (let (($x3979 (exc_halt_s 5)))
 (let (($x3655 (forall ((w (_ BitVec 256)) )(let ((?x1112 (storage_s x_0 x_SLOAD_0 w_3 w_2 4 w)))
 (let ((?x7322 (storage_s x_0 x_SLOAD_0 w_3 w_2 5 w)))
 (= ?x7322 ?x1112))))
 ))
 (let (($x7203 (forall ((n (_ BitVec 6)) )(let ((?x5446 (stack_s x_0 x_SLOAD_0 w_3 w_2 4 n)))
 (let ((?x2275 (stack_s x_0 x_SLOAD_0 w_3 w_2 5 n)))
 (or (bvsle (sc_s 4) n) (= ?x2275 ?x5446)))))
 ))
 (let ((?x7632 (used_gas_s x_0 x_SLOAD_0 w_3 w_2 5)))
 (let (($x292 (exc_halt_s 3)))
 (let (($x7067 (or $x292 (not (= ((_ extract 6 6) (bvadd (_ bv1 7) (concat (_ bv0 1) (sc_s 3)))) (_ bv0 1))))))
 (let (($x5546 (= $x64 $x7067)))
 (let (($x8736 (forall ((w (_ BitVec 256)) )(let ((?x8655 (storage_s x_0 x_SLOAD_0 w_3 w_2 3 w)))
 (let ((?x1112 (storage_s x_0 x_SLOAD_0 w_3 w_2 4 w)))
 (= ?x1112 ?x8655))))
 ))
 (let (($x5913 (forall ((n (_ BitVec 6)) )(let ((?x275 (sc_s 3)))
 (let (($x6434 (bvsle ?x275 n)))
 (let ((?x6879 (stack_s x_0 x_SLOAD_0 w_3 w_2 3 n)))
 (let ((?x5446 (stack_s x_0 x_SLOAD_0 w_3 w_2 4 n)))
 (or (= ?x5446 ?x6879) $x6434))))))
 ))
 (let ((?x4305 (sc_s 4)))
 (let (($x5398 (= ?x4305 (bvadd (_ bv1 6) (sc_s 3)))))
 (let ((?x2199 (used_gas_s x_0 x_SLOAD_0 w_3 w_2 4)))
 (let (($x9907 (= $x292 (or (exc_halt_s 2) (not (bvsle (_ bv0 6) (bvadd (_ bv63 6) (sc_s 2))))))))
 (let (($x6739 (forall ((w (_ BitVec 256)) )(let ((?x6587 (storage_s x_0 x_SLOAD_0 w_3 w_2 2 w)))
 (let ((?x8655 (storage_s x_0 x_SLOAD_0 w_3 w_2 3 w)))
 (= ?x8655 ?x6587))))
 ))
 (let (($x2166 (forall ((n (_ BitVec 6)) )(let ((?x218 (sc_s 2)))
 (let ((?x7253 (bvadd (_ bv63 6) ?x218)))
 (let (($x6418 (bvsle ?x7253 n)))
 (let ((?x10422 (stack_s x_0 x_SLOAD_0 w_3 w_2 2 n)))
 (let ((?x6879 (stack_s x_0 x_SLOAD_0 w_3 w_2 3 n)))
 (or (= ?x6879 ?x10422) $x6418)))))))
 ))
 (let ((?x218 (sc_s 2)))
 (let ((?x275 (sc_s 3)))
 (let (($x4319 (= ?x275 ?x218)))
 (let ((?x5228 (used_gas_s x_0 x_SLOAD_0 w_3 w_2 3)))
 (let ((?x7253 (bvadd (_ bv63 6) ?x218)))
 (let ((?x5215 (stack_s x_0 x_SLOAD_0 w_3 w_2 2 ?x7253)))
 (let (($x2018 (= (stack_s x_0 x_SLOAD_0 w_3 w_2 3 (bvadd (_ bv63 6) ?x275)) (storage_s x_0 x_SLOAD_0 w_3 w_2 2 ?x5215))))
 (let (($x6821 (not (bvsle (_ bv0 6) (bvadd (_ bv63 6) (sc_s 1))))))
 (let (($x1895 (not (= ((_ extract 6 6) (bvadd (_ bv1 7) (concat (_ bv0 1) (sc_s 1)))) (_ bv0 1)))))
 (let (($x189 (exc_halt_s 1)))
 (let (($x247 (exc_halt_s 2)))
 (let (($x10064 (= $x247 (or $x189 $x1895 $x6821))))
 (let (($x9216 (forall ((w (_ BitVec 256)) )(let ((?x6763 (storage_s x_0 x_SLOAD_0 w_3 w_2 1 w)))
 (let ((?x6587 (storage_s x_0 x_SLOAD_0 w_3 w_2 2 w)))
 (= ?x6587 ?x6763))))
 ))
 (let (($x8560 (forall ((n (_ BitVec 6)) )(let ((?x9525 (stack_s x_0 x_SLOAD_0 w_3 w_2 1 n)))
 (let ((?x10422 (stack_s x_0 x_SLOAD_0 w_3 w_2 2 n)))
 (let ((?x154 (sc_s 1)))
 (let ((?x7299 (bvadd (_ bv63 6) ?x154)))
 (let (($x7263 (bvsle ?x7299 n)))
 (or $x7263 (= ?x10422 ?x9525))))))))
 ))
 (let (($x9161 (= ?x218 (bvadd (_ bv1 6) (sc_s 1)))))
 (let ((?x8810 (used_gas_s x_0 x_SLOAD_0 w_3 w_2 2)))
 (let ((?x154 (sc_s 1)))
 (let ((?x7299 (bvadd (_ bv63 6) ?x154)))
 (let ((?x9000 (stack_s x_0 x_SLOAD_0 w_3 w_2 1 ?x7299)))
 (let (($x2924 (not (= ((_ extract 6 6) (bvadd (_ bv1 7) (concat (_ bv0 1) ?x72))) (_ bv0 1)))))
 (let (($x9910 (= $x189 (or $x57 $x2924 (not (bvsle (_ bv0 6) (bvadd (_ bv63 6) ?x72)))))))
 (let (($x1382 (forall ((w (_ BitVec 256)) )(let ((?x10161 (storage_s x_0 x_SLOAD_0 w_3 w_2 0 w)))
 (let ((?x6763 (storage_s x_0 x_SLOAD_0 w_3 w_2 1 w)))
 (= ?x6763 ?x10161))))
 ))
 (let (($x2684 (forall ((n (_ BitVec 6)) )(let ((?x72 (sc_s 0)))
 (let ((?x9906 (bvadd (_ bv63 6) ?x72)))
 (let (($x9889 (bvsle ?x9906 n)))
 (let ((?x4331 (stack_s x_0 x_SLOAD_0 w_3 w_2 0 n)))
 (let ((?x9525 (stack_s x_0 x_SLOAD_0 w_3 w_2 1 n)))
 (or (= ?x9525 ?x4331) $x9889)))))))
 ))
 (let (($x6201 (= ?x154 (bvadd (_ bv1 6) ?x72))))
 (let ((?x9906 (bvadd (_ bv63 6) ?x72)))
 (let ((?x3251 (stack_s x_0 x_SLOAD_0 w_3 w_2 0 ?x9906)))
 (let (($x1794 (forall ((w (_ BitVec 256)) )(let (($x7658 (= w (stack_s x_0 x_SLOAD_0 w_3 w_2 2 (bvadd (_ bv63 6) (sc_s 2))))))
 (let ((?x10161 (storage_s x_0 x_SLOAD_0 w_3 w_2 0 w)))
 (= ?x10161 (ite $x7658 x_SLOAD_0 (_ bv0 256))))))
 ))
 (let (($x6817 (= ?x10804 0)))
 (let (($x3899 (not $x57)))
 (let (($x7956 (= (stack_s x_0 x_SLOAD_0 w_3 w_2 0 (_ bv0 6)) x_0)))
 (let (($x8685 (= ?x72 (_ bv1 6))))
 (and $x8685 $x7956 $x3899 $x6817 $x1794 (= ?x9000 ?x3251) (= (stack_s x_0 x_SLOAD_0 w_3 w_2 1 ?x9906) ?x3251) (= (used_gas_s x_0 x_SLOAD_0 w_3 w_2 1) (+ 3 ?x10804)) $x6201 $x2684 $x1382 $x9910 (= ?x5215 ?x9000) (= (stack_s x_0 x_SLOAD_0 w_3 w_2 2 ?x7299) ?x9000) (= ?x8810 (+ 3 (used_gas_s x_0 x_SLOAD_0 w_3 w_2 1))) $x9161 $x8560 $x9216 $x10064 $x2018 (= ?x5228 (+ 200 ?x8810)) $x4319 $x2166 $x6739 $x9907 (= (stack_s x_0 x_SLOAD_0 w_3 w_2 4 ?x275) w_3) (= ?x2199 (+ 3 ?x5228)) $x5398 $x5913 $x8736 $x5546 (= (stack_s x_0 x_SLOAD_0 w_3 w_2 5 ?x4305) w_2) (= ?x7632 (+ 3 ?x2199)) (= ?x805 (bvadd (_ bv1 6) ?x4305)) $x7203 $x3655 (= $x3979 $x3406) $x3963 $x8911 $x8610 $x2388 $x7470 $x8080 $x3998 $x5424 (= (stack_t x_0 x_SLOAD_0 w_3 w_2 1 (bvadd (_ bv63 6) ?x4023)) ?x9027) (= (stack_t x_0 x_SLOAD_0 w_3 w_2 1 ?x4759) ?x9027) (= (used_gas_t x_0 x_SLOAD_0 w_3 w_2 1) (+ 3 ?x1352)) $x2532 $x2545 $x3532 (= $x1920 (or $x56 $x1244 $x4317)) (= (stack_t x_0 x_SLOAD_0 w_3 w_2 2 ?x4023) w_2) (= ?x468 (+ 3 (used_gas_t x_0 x_SLOAD_0 w_3 w_2 1))) $x6865 $x9549 $x9269 $x2178 (= (stack_t x_0 x_SLOAD_0 w_3 w_2 3 ?x4056) w_3) (= ?x3398 (+ 3 ?x468)) $x1410 $x2461 $x3921 $x2980 (= ?x8272 ?x4663) (= (stack_t x_0 x_SLOAD_0 w_3 w_2 4 ?x9462) ?x4663) $x7628 $x9335 $x8452 (= ?x6430 (+ 3 ?x3398)) $x2578 $x6656 $x2698 (= $x3723 (or $x3187 $x5147 $x10336)) $x1845 $x8256 (= ?x919 ?x3757) $x9779 $x9229 $x6664 $x73 $x1282 $x58 $x8038 $x1757 (not (and $x929 $x3085 $x889 $x7869)))))))))))))))))))))))))))))))))))))))))))))))))))))))))))))))))))))))))))))))))))))))))))))))))))))))))))))))))))))))))))))
 )
(check-sat)
(get-proof)
